p cnf 391 1202
e 1 2 3 0
a 4 5 6 0
e 7 8 9 0
a 10 11 12 0
e 13 14 15 0
a 16 17 18 0
e 19 20 21 22 23 24 25 26 27 28 29 30 31 32 33 0
e 34 35 36 37 38 39 40 41 42 43 44 45 46 47 48 49 50 51 52 53 54 55 56 57 58 59 60 61 62 63 64 65 66 67 68 69 70 71 72 73 74 75 76 77 78 79 80 81 82 83 84 85 86 87 88 89 90 91 92 93 94 95 96 97 98 99 100 101 102 103 104 105 106 107 108 109 110 111 112 113 114 115 116 117 118 119 120 121 122 123 124 125 126 127 128 129 130 131 132 133 134 135 136 137 138 139 140 141 142 143 144 145 146 147 148 149 150 151 152 153 154 155 156 157 158 159 160 161 162 163 164 165 166 167 168 169 170 171 172 173 174 175 176 177 178 179 180 181 182 183 184 185 186 187 188 189 190 191 192 193 194 195 196 197 198 199 200 201 202 203 204 205 206 207 208 209 210 211 212 213 214 215 216 217 218 219 220 221 222 223 224 225 226 227 228 229 230 231 232 233 234 235 236 237 238 239 240 241 242 243 244 245 246 247 248 249 250 251 252 253 254 255 256 257 258 259 260 261 262 263 264 265 266 267 268 269 270 271 272 273 274 275 276 277 278 279 280 281 282 283 284 285 286 287 288 289 290 291 292 293 294 295 296 297 298 299 300 301 302 303 304 305 306 307 308 309 310 311 312 313 314 315 316 317 318 319 320 321 322 323 324 325 326 327 328 329 330 331 332 333 334 335 336 337 338 339 340 341 342 343 344 345 346 347 348 349 350 351 352 353 354 355 356 357 358 359 360 361 362 363 364 365 366 367 368 369 370 371 372 373 374 375 376 377 378 379 380 381 382 383 384 385 386 387 388 389 390 391 0
7 34 0
-4 34 0
-7 4 -34 0
4 35 0
-7 35 0
-4 7 -35 0
34 -36 0
35 -36 0
-34 -35 36 0
8 37 0
-5 37 0
-8 5 -37 0
5 38 0
-8 38 0
-5 8 -38 0
37 -39 0
38 -39 0
-37 -38 39 0
9 40 0
-6 40 0
-9 6 -40 0
6 41 0
-9 41 0
-6 9 -41 0
40 -42 0
41 -42 0
-40 -41 42 0
36 -43 0
39 -43 0
42 -43 0
-36 -39 -42 43 0
13 44 0
-4 44 0
-13 4 -44 0
4 45 0
-13 45 0
-4 13 -45 0
44 -46 0
45 -46 0
-44 -45 46 0
14 47 0
-5 47 0
-14 5 -47 0
5 48 0
-14 48 0
-5 14 -48 0
47 -49 0
48 -49 0
-47 -48 49 0
15 50 0
-6 50 0
-15 6 -50 0
6 51 0
-15 51 0
-6 15 -51 0
50 -52 0
51 -52 0
-50 -51 52 0
46 -53 0
49 -53 0
52 -53 0
-46 -49 -52 53 0
13 54 0
-10 54 0
-13 10 -54 0
10 55 0
-13 55 0
-10 13 -55 0
54 -56 0
55 -56 0
-54 -55 56 0
14 57 0
-11 57 0
-14 11 -57 0
11 58 0
-14 58 0
-11 14 -58 0
57 -59 0
58 -59 0
-57 -58 59 0
15 60 0
-12 60 0
-15 12 -60 0
12 61 0
-15 61 0
-12 15 -61 0
60 -62 0
61 -62 0
-60 -61 62 0
56 -63 0
59 -63 0
62 -63 0
-56 -59 -62 63 0
19 64 0
-4 64 0
-19 4 -64 0
4 65 0
-19 65 0
-4 19 -65 0
64 -66 0
65 -66 0
-64 -65 66 0
20 67 0
-5 67 0
-20 5 -67 0
5 68 0
-20 68 0
-5 20 -68 0
67 -69 0
68 -69 0
-67 -68 69 0
21 70 0
-6 70 0
-21 6 -70 0
6 71 0
-21 71 0
-6 21 -71 0
70 -72 0
71 -72 0
-70 -71 72 0
66 -73 0
69 -73 0
72 -73 0
-66 -69 -72 73 0
19 74 0
-10 74 0
-19 10 -74 0
10 75 0
-19 75 0
-10 19 -75 0
74 -76 0
75 -76 0
-74 -75 76 0
20 77 0
-11 77 0
-20 11 -77 0
11 78 0
-20 78 0
-11 20 -78 0
77 -79 0
78 -79 0
-77 -78 79 0
21 80 0
-12 80 0
-21 12 -80 0
12 81 0
-21 81 0
-12 21 -81 0
80 -82 0
81 -82 0
-80 -81 82 0
76 -83 0
79 -83 0
82 -83 0
-76 -79 -82 83 0
19 84 0
-16 84 0
-19 16 -84 0
16 85 0
-19 85 0
-16 19 -85 0
84 -86 0
85 -86 0
-84 -85 86 0
20 87 0
-17 87 0
-20 17 -87 0
17 88 0
-20 88 0
-17 20 -88 0
87 -89 0
88 -89 0
-87 -88 89 0
21 90 0
-18 90 0
-21 18 -90 0
18 91 0
-21 91 0
-18 21 -91 0
90 -92 0
91 -92 0
-90 -91 92 0
86 -93 0
89 -93 0
92 -93 0
-86 -89 -92 93 0
7 94 0
-1 94 0
-7 1 -94 0
1 95 0
-7 95 0
-1 7 -95 0
94 -96 0
95 -96 0
-94 -95 96 0
8 97 0
-2 97 0
-8 2 -97 0
2 98 0
-8 98 0
-2 8 -98 0
97 -99 0
98 -99 0
-97 -98 99 0
9 100 0
-3 100 0
-9 3 -100 0
3 101 0
-9 101 0
-3 9 -101 0
100 -102 0
101 -102 0
-100 -101 102 0
96 -103 0
99 -103 0
102 -103 0
-96 -99 -102 103 0
13 104 0
-1 104 0
-13 1 -104 0
1 105 0
-13 105 0
-1 13 -105 0
104 -106 0
105 -106 0
-104 -105 106 0
14 107 0
-2 107 0
-14 2 -107 0
2 108 0
-14 108 0
-2 14 -108 0
107 -109 0
108 -109 0
-107 -108 109 0
15 110 0
-3 110 0
-15 3 -110 0
3 111 0
-15 111 0
-3 15 -111 0
110 -112 0
111 -112 0
-110 -111 112 0
106 -113 0
109 -113 0
112 -113 0
-106 -109 -112 113 0
13 114 0
-7 114 0
-13 7 -114 0
7 115 0
-13 115 0
-7 13 -115 0
114 -116 0
115 -116 0
-114 -115 116 0
14 117 0
-8 117 0
-14 8 -117 0
8 118 0
-14 118 0
-8 14 -118 0
117 -119 0
118 -119 0
-117 -118 119 0
15 120 0
-9 120 0
-15 9 -120 0
9 121 0
-15 121 0
-9 15 -121 0
120 -122 0
121 -122 0
-120 -121 122 0
116 -123 0
119 -123 0
122 -123 0
-116 -119 -122 123 0
19 124 0
-1 124 0
-19 1 -124 0
1 125 0
-19 125 0
-1 19 -125 0
124 -126 0
125 -126 0
-124 -125 126 0
20 127 0
-2 127 0
-20 2 -127 0
2 128 0
-20 128 0
-2 20 -128 0
127 -129 0
128 -129 0
-127 -128 129 0
21 130 0
-3 130 0
-21 3 -130 0
3 131 0
-21 131 0
-3 21 -131 0
130 -132 0
131 -132 0
-130 -131 132 0
126 -133 0
129 -133 0
132 -133 0
-126 -129 -132 133 0
19 134 0
-7 134 0
-19 7 -134 0
7 135 0
-19 135 0
-7 19 -135 0
134 -136 0
135 -136 0
-134 -135 136 0
20 137 0
-8 137 0
-20 8 -137 0
8 138 0
-20 138 0
-8 20 -138 0
137 -139 0
138 -139 0
-137 -138 139 0
21 140 0
-9 140 0
-21 9 -140 0
9 141 0
-21 141 0
-9 21 -141 0
140 -142 0
141 -142 0
-140 -141 142 0
136 -143 0
139 -143 0
142 -143 0
-136 -139 -142 143 0
19 144 0
-13 144 0
-19 13 -144 0
13 145 0
-19 145 0
-13 19 -145 0
144 -146 0
145 -146 0
-144 -145 146 0
20 147 0
-14 147 0
-20 14 -147 0
14 148 0
-20 148 0
-14 20 -148 0
147 -149 0
148 -149 0
-147 -148 149 0
21 150 0
-15 150 0
-21 15 -150 0
15 151 0
-21 151 0
-15 21 -151 0
150 -152 0
151 -152 0
-150 -151 152 0
146 -153 0
149 -153 0
152 -153 0
-146 -149 -152 153 0
22 154 0
-1 154 0
-22 1 -154 0
1 155 0
-22 155 0
-1 22 -155 0
154 -156 0
155 -156 0
-154 -155 156 0
23 157 0
-2 157 0
-23 2 -157 0
2 158 0
-23 158 0
-2 23 -158 0
157 -159 0
158 -159 0
-157 -158 159 0
24 160 0
-3 160 0
-24 3 -160 0
3 161 0
-24 161 0
-3 24 -161 0
160 -162 0
161 -162 0
-160 -161 162 0
156 -163 0
159 -163 0
162 -163 0
-156 -159 -162 163 0
22 164 0
-7 164 0
-22 7 -164 0
7 165 0
-22 165 0
-7 22 -165 0
164 -166 0
165 -166 0
-164 -165 166 0
23 167 0
-8 167 0
-23 8 -167 0
8 168 0
-23 168 0
-8 23 -168 0
167 -169 0
168 -169 0
-167 -168 169 0
24 170 0
-9 170 0
-24 9 -170 0
9 171 0
-24 171 0
-9 24 -171 0
170 -172 0
171 -172 0
-170 -171 172 0
166 -173 0
169 -173 0
172 -173 0
-166 -169 -172 173 0
22 174 0
-13 174 0
-22 13 -174 0
13 175 0
-22 175 0
-13 22 -175 0
174 -176 0
175 -176 0
-174 -175 176 0
23 177 0
-14 177 0
-23 14 -177 0
14 178 0
-23 178 0
-14 23 -178 0
177 -179 0
178 -179 0
-177 -178 179 0
24 180 0
-15 180 0
-24 15 -180 0
15 181 0
-24 181 0
-15 24 -181 0
180 -182 0
181 -182 0
-180 -181 182 0
176 -183 0
179 -183 0
182 -183 0
-176 -179 -182 183 0
22 184 0
-19 184 0
-22 19 -184 0
19 185 0
-22 185 0
-19 22 -185 0
184 -186 0
185 -186 0
-184 -185 186 0
23 187 0
-20 187 0
-23 20 -187 0
20 188 0
-23 188 0
-20 23 -188 0
187 -189 0
188 -189 0
-187 -188 189 0
24 190 0
-21 190 0
-24 21 -190 0
21 191 0
-24 191 0
-21 24 -191 0
190 -192 0
191 -192 0
-190 -191 192 0
186 -193 0
189 -193 0
192 -193 0
-186 -189 -192 193 0
-163 194 0
-173 194 0
-183 194 0
-193 194 0
163 173 183 193 -194 0
25 195 0
-1 195 0
-25 1 -195 0
1 196 0
-25 196 0
-1 25 -196 0
195 -197 0
196 -197 0
-195 -196 197 0
26 198 0
-2 198 0
-26 2 -198 0
2 199 0
-26 199 0
-2 26 -199 0
198 -200 0
199 -200 0
-198 -199 200 0
27 201 0
-3 201 0
-27 3 -201 0
3 202 0
-27 202 0
-3 27 -202 0
201 -203 0
202 -203 0
-201 -202 203 0
197 -204 0
200 -204 0
203 -204 0
-197 -200 -203 204 0
25 205 0
-7 205 0
-25 7 -205 0
7 206 0
-25 206 0
-7 25 -206 0
205 -207 0
206 -207 0
-205 -206 207 0
26 208 0
-8 208 0
-26 8 -208 0
8 209 0
-26 209 0
-8 26 -209 0
208 -210 0
209 -210 0
-208 -209 210 0
27 211 0
-9 211 0
-27 9 -211 0
9 212 0
-27 212 0
-9 27 -212 0
211 -213 0
212 -213 0
-211 -212 213 0
207 -214 0
210 -214 0
213 -214 0
-207 -210 -213 214 0
25 215 0
-13 215 0
-25 13 -215 0
13 216 0
-25 216 0
-13 25 -216 0
215 -217 0
216 -217 0
-215 -216 217 0
26 218 0
-14 218 0
-26 14 -218 0
14 219 0
-26 219 0
-14 26 -219 0
218 -220 0
219 -220 0
-218 -219 220 0
27 221 0
-15 221 0
-27 15 -221 0
15 222 0
-27 222 0
-15 27 -222 0
221 -223 0
222 -223 0
-221 -222 223 0
217 -224 0
220 -224 0
223 -224 0
-217 -220 -223 224 0
25 225 0
-19 225 0
-25 19 -225 0
19 226 0
-25 226 0
-19 25 -226 0
225 -227 0
226 -227 0
-225 -226 227 0
26 228 0
-20 228 0
-26 20 -228 0
20 229 0
-26 229 0
-20 26 -229 0
228 -230 0
229 -230 0
-228 -229 230 0
27 231 0
-21 231 0
-27 21 -231 0
21 232 0
-27 232 0
-21 27 -232 0
231 -233 0
232 -233 0
-231 -232 233 0
227 -234 0
230 -234 0
233 -234 0
-227 -230 -233 234 0
-204 235 0
-214 235 0
-224 235 0
-234 235 0
204 214 224 234 -235 0
28 236 0
-1 236 0
-28 1 -236 0
1 237 0
-28 237 0
-1 28 -237 0
236 -238 0
237 -238 0
-236 -237 238 0
29 239 0
-2 239 0
-29 2 -239 0
2 240 0
-29 240 0
-2 29 -240 0
239 -241 0
240 -241 0
-239 -240 241 0
30 242 0
-3 242 0
-30 3 -242 0
3 243 0
-30 243 0
-3 30 -243 0
242 -244 0
243 -244 0
-242 -243 244 0
238 -245 0
241 -245 0
244 -245 0
-238 -241 -244 245 0
28 246 0
-7 246 0
-28 7 -246 0
7 247 0
-28 247 0
-7 28 -247 0
246 -248 0
247 -248 0
-246 -247 248 0
29 249 0
-8 249 0
-29 8 -249 0
8 250 0
-29 250 0
-8 29 -250 0
249 -251 0
250 -251 0
-249 -250 251 0
30 252 0
-9 252 0
-30 9 -252 0
9 253 0
-30 253 0
-9 30 -253 0
252 -254 0
253 -254 0
-252 -253 254 0
248 -255 0
251 -255 0
254 -255 0
-248 -251 -254 255 0
28 256 0
-13 256 0
-28 13 -256 0
13 257 0
-28 257 0
-13 28 -257 0
256 -258 0
257 -258 0
-256 -257 258 0
29 259 0
-14 259 0
-29 14 -259 0
14 260 0
-29 260 0
-14 29 -260 0
259 -261 0
260 -261 0
-259 -260 261 0
30 262 0
-15 262 0
-30 15 -262 0
15 263 0
-30 263 0
-15 30 -263 0
262 -264 0
263 -264 0
-262 -263 264 0
258 -265 0
261 -265 0
264 -265 0
-258 -261 -264 265 0
28 266 0
-19 266 0
-28 19 -266 0
19 267 0
-28 267 0
-19 28 -267 0
266 -268 0
267 -268 0
-266 -267 268 0
29 269 0
-20 269 0
-29 20 -269 0
20 270 0
-29 270 0
-20 29 -270 0
269 -271 0
270 -271 0
-269 -270 271 0
30 272 0
-21 272 0
-30 21 -272 0
21 273 0
-30 273 0
-21 30 -273 0
272 -274 0
273 -274 0
-272 -273 274 0
268 -275 0
271 -275 0
274 -275 0
-268 -271 -274 275 0
-245 276 0
-255 276 0
-265 276 0
-275 276 0
245 255 265 275 -276 0
31 277 0
-1 277 0
-31 1 -277 0
1 278 0
-31 278 0
-1 31 -278 0
277 -279 0
278 -279 0
-277 -278 279 0
32 280 0
-2 280 0
-32 2 -280 0
2 281 0
-32 281 0
-2 32 -281 0
280 -282 0
281 -282 0
-280 -281 282 0
33 283 0
-3 283 0
-33 3 -283 0
3 284 0
-33 284 0
-3 33 -284 0
283 -285 0
284 -285 0
-283 -284 285 0
279 -286 0
282 -286 0
285 -286 0
-279 -282 -285 286 0
31 287 0
-7 287 0
-31 7 -287 0
7 288 0
-31 288 0
-7 31 -288 0
287 -289 0
288 -289 0
-287 -288 289 0
32 290 0
-8 290 0
-32 8 -290 0
8 291 0
-32 291 0
-8 32 -291 0
290 -292 0
291 -292 0
-290 -291 292 0
33 293 0
-9 293 0
-33 9 -293 0
9 294 0
-33 294 0
-9 33 -294 0
293 -295 0
294 -295 0
-293 -294 295 0
289 -296 0
292 -296 0
295 -296 0
-289 -292 -295 296 0
31 297 0
-13 297 0
-31 13 -297 0
13 298 0
-31 298 0
-13 31 -298 0
297 -299 0
298 -299 0
-297 -298 299 0
32 300 0
-14 300 0
-32 14 -300 0
14 301 0
-32 301 0
-14 32 -301 0
300 -302 0
301 -302 0
-300 -301 302 0
33 303 0
-15 303 0
-33 15 -303 0
15 304 0
-33 304 0
-15 33 -304 0
303 -305 0
304 -305 0
-303 -304 305 0
299 -306 0
302 -306 0
305 -306 0
-299 -302 -305 306 0
31 307 0
-19 307 0
-31 19 -307 0
19 308 0
-31 308 0
-19 31 -308 0
307 -309 0
308 -309 0
-307 -308 309 0
32 310 0
-20 310 0
-32 20 -310 0
20 311 0
-32 311 0
-20 32 -311 0
310 -312 0
311 -312 0
-310 -311 312 0
33 313 0
-21 313 0
-33 21 -313 0
21 314 0
-33 314 0
-21 33 -314 0
313 -315 0
314 -315 0
-313 -314 315 0
309 -316 0
312 -316 0
315 -316 0
-309 -312 -315 316 0
-286 317 0
-296 317 0
-306 317 0
-316 317 0
286 296 306 316 -317 0
-22 -318 0
-23 -318 0
24 -318 0
22 23 -24 318 0
22 -319 0
-23 -319 0
-24 -319 0
-22 23 24 319 0
-318 320 0
-319 320 0
318 319 -320 0
-22 -321 0
-23 -321 0
-24 -321 0
22 23 24 321 0
-25 -322 0
26 -322 0
-27 -322 0
25 -26 27 322 0
-25 -323 0
-26 -323 0
27 -323 0
25 26 -27 323 0
-322 324 0
-323 324 0
322 323 -324 0
321 325 0
-324 325 0
-321 324 -325 0
-25 -326 0
-26 -326 0
-27 -326 0
25 26 27 326 0
-322 327 0
-326 327 0
322 326 -327 0
318 328 0
-327 328 0
-318 327 -328 0
-22 -329 0
23 -329 0
-24 -329 0
22 -23 24 329 0
25 -330 0
-26 -330 0
27 -330 0
-25 26 -27 330 0
-25 -331 0
26 -331 0
27 -331 0
25 -26 -27 331 0
25 -332 0
-26 -332 0
-27 -332 0
-25 26 27 332 0
-326 333 0
-330 333 0
-323 333 0
-331 333 0
-332 333 0
326 330 323 331 332 -333 0
329 334 0
-333 334 0
-329 333 -334 0
-22 -335 0
23 -335 0
24 -335 0
22 -23 -24 335 0
335 336 0
-331 336 0
-335 331 -336 0
-330 337 0
-322 337 0
330 322 -337 0
319 338 0
-337 338 0
-319 337 -338 0
22 -339 0
-23 -339 0
24 -339 0
-22 23 -24 339 0
25 -340 0
26 -340 0
27 -340 0
-25 -26 -27 340 0
25 -341 0
26 -341 0
-27 -341 0
-25 -26 27 341 0
-322 342 0
-340 342 0
-332 342 0
-341 342 0
-331 342 0
322 340 332 341 331 -342 0
339 343 0
-342 343 0
-339 342 -343 0
22 -344 0
23 -344 0
-24 -344 0
-22 -23 24 344 0
344 345 0
-341 345 0
-344 341 -345 0
22 -346 0
23 -346 0
24 -346 0
-22 -23 -24 346 0
346 347 0
-340 347 0
-346 340 -347 0
-28 -348 0
29 -348 0
-30 -348 0
28 -29 30 348 0
-28 -349 0
-29 -349 0
30 -349 0
28 29 -30 349 0
-348 350 0
-349 350 0
348 349 -350 0
326 351 0
-350 351 0
-326 350 -351 0
-28 -352 0
-29 -352 0
-30 -352 0
28 29 30 352 0
-348 353 0
-352 353 0
348 352 -353 0
323 354 0
-353 354 0
-323 353 -354 0
28 -355 0
-29 -355 0
30 -355 0
-28 29 -30 355 0
-28 -356 0
29 -356 0
30 -356 0
28 -29 -30 356 0
28 -357 0
-29 -357 0
-30 -357 0
-28 29 30 357 0
-352 358 0
-355 358 0
-349 358 0
-356 358 0
-357 358 0
352 355 349 356 357 -358 0
322 359 0
-358 359 0
-322 358 -359 0
331 360 0
-356 360 0
-331 356 -360 0
-355 361 0
-348 361 0
355 348 -361 0
332 362 0
-361 362 0
-332 361 -362 0
28 -363 0
29 -363 0
30 -363 0
-28 -29 -30 363 0
28 -364 0
29 -364 0
-30 -364 0
-28 -29 30 364 0
-348 365 0
-363 365 0
-357 365 0
-364 365 0
-356 365 0
348 363 357 364 356 -365 0
330 366 0
-365 366 0
-330 365 -366 0
341 367 0
-364 367 0
-341 364 -367 0
340 368 0
-363 368 0
-340 363 -368 0
-31 -369 0
32 -369 0
-33 -369 0
31 -32 33 369 0
-31 -370 0
-32 -370 0
33 -370 0
31 32 -33 370 0
-369 371 0
-370 371 0
369 370 -371 0
352 372 0
-371 372 0
-352 371 -372 0
-31 -373 0
-32 -373 0
-33 -373 0
31 32 33 373 0
-369 374 0
-373 374 0
369 373 -374 0
349 375 0
-374 375 0
-349 374 -375 0
31 -376 0
-32 -376 0
33 -376 0
-31 32 -33 376 0
-31 -377 0
32 -377 0
33 -377 0
31 -32 -33 377 0
31 -378 0
-32 -378 0
-33 -378 0
-31 32 33 378 0
-373 379 0
-376 379 0
-370 379 0
-377 379 0
-378 379 0
373 376 370 377 378 -379 0
348 380 0
-379 380 0
-348 379 -380 0
356 381 0
-377 381 0
-356 377 -381 0
-376 382 0
-369 382 0
376 369 -382 0
357 383 0
-382 383 0
-357 382 -383 0
31 -384 0
32 -384 0
33 -384 0
-31 -32 -33 384 0
31 -385 0
32 -385 0
-33 -385 0
-31 -32 33 385 0
-369 386 0
-384 386 0
-378 386 0
-385 386 0
-377 386 0
369 384 378 385 377 -386 0
355 387 0
-386 387 0
-355 386 -387 0
364 388 0
-385 388 0
-364 385 -388 0
363 389 0
-384 389 0
-363 384 -389 0
-377 390 0
-385 390 0
-384 390 0
377 385 384 -390 0
-43 -391 0
-53 -391 0
-63 -391 0
-73 -391 0
-83 -391 0
-93 -391 0
-103 -391 0
-113 -391 0
-123 -391 0
-133 -391 0
-143 -391 0
-153 -391 0
194 -391 0
235 -391 0
276 -391 0
317 -391 0
320 -391 0
325 -391 0
328 -391 0
334 -391 0
336 -391 0
338 -391 0
343 -391 0
345 -391 0
347 -391 0
351 -391 0
354 -391 0
359 -391 0
360 -391 0
362 -391 0
366 -391 0
367 -391 0
368 -391 0
372 -391 0
375 -391 0
380 -391 0
381 -391 0
383 -391 0
387 -391 0
388 -391 0
389 -391 0
390 -391 0
43 53 63 73 83 93 103 113 123 133 143 153 -194 -235 -276 -317 -320 -325 -328 -334 -336 -338 -343 -345 -347 -351 -354 -359 -360 -362 -366 -367 -368 -372 -375 -380 -381 -383 -387 -388 -389 -390 391 0
391 0

